Results/Experiment 2 Results/New Benchmark/output_p1_0.00_p2_0.00_n_20_06.lp
clingo version 5.4.0
Reading from tempSRTISolver.lp ...
Solving...
Answer: 1
matched(7,2) matched(6,3) matched(1,4) matched(8,5) matched(3,6) matched(2,7) matched(5,8) matched(11,10) matched(10,11) matched(9,12) matched(12,9) matched(19,14) matched(18,15) matched(13,16) matched(20,17) matched(15,18) matched(14,19) matched(17,20) matched(16,13) matched(4,1)
Optimization: 93
OPTIMUM FOUND

Models       : 1
  Optimum    : yes
Optimization : 93
Calls        : 1
Time         : 0.098s (Solving: 0.01s 1st Model: 0.00s Unsat: 0.01s)
CPU Time     : 0.095s
